Version identifier: 12.10.0.0 | 2019-11-26 | 843d4de
CPXPARAM_WorkMem                                 28672
Tried aggregator 2 times.
MIP Presolve modified 110 coefficients.
Aggregator did 45 substitutions.
Reduced MIP has 245 rows, 300 columns, and 1155 nonzeros.
Reduced MIP has 300 binaries, 0 generals, 0 SOSs, and 0 indicators.
Presolve time = 0,00 sec. (1,60 ticks)
Found incumbent of value 225,000000 after 0,01 sec. (2,49 ticks)
Probing time = 0,00 sec. (0,45 ticks)
Tried aggregator 1 time.
Detecting symmetries...
MIP Presolve eliminated 55 rows and 0 columns.
MIP Presolve added 110 rows and 0 columns.
Reduced MIP has 300 rows, 300 columns, and 1210 nonzeros.
Reduced MIP has 300 binaries, 0 generals, 0 SOSs, and 0 indicators.
Presolve time = 0,00 sec. (1,53 ticks)
Probing time = 0,00 sec. (0,43 ticks)
Clique table members: 795.
MIP emphasis: balance optimality and feasibility.
MIP search method: dynamic search.
Parallel mode: deterministic, using up to 16 threads.
Root relaxation solution time = 0,00 sec. (2,65 ticks)

        Nodes                                         Cuts/
   Node  Left     Objective  IInf  Best Integer    Best Bound    ItCnt     Gap

*     0+    0                          225,0000        0,0000           100,00%
*     0+    0                          122,0000        0,0000           100,00%
*     0+    0                          120,0000        0,0000           100,00%
*     0+    0                          118,0000        0,0000           100,00%
*     0+    0                          116,0000        0,0000           100,00%
      0     0       55,6667   224      116,0000       55,6667      237   52,01%
      0     0       55,8069   224      116,0000     Cuts: 174      338   51,89%
      0     0       56,8133   224      116,0000     Cuts: 175      437   51,02%
      0     0       57,6643   224      116,0000     Cuts: 137      529   50,29%
      0     0       58,1795   224      116,0000     Cuts: 124      610   49,85%
      0     0       58,4935   224      116,0000     Cuts: 116      707   49,57%
      0     0       63,7579   224      116,0000     Cuts: 142      991   45,04%
*     0+    0                          107,0000       63,7579            40,41%
      0     0       64,0175   224      107,0000      Cuts: 62     1082   40,17%
      0     0       64,2463   224      107,0000      Cuts: 81     1165   39,96%
      0     0       64,5067   224      107,0000      Cuts: 56     1283   39,71%
      0     0       64,7118   224      107,0000      Cuts: 84     1395   39,52%
      0     0       64,8136   224      107,0000      Cuts: 56     1469   39,43%
      0     0       65,0185   224      107,0000      Cuts: 76     1585   39,24%
      0     0       65,1181   224      107,0000      Cuts: 70     1711   39,14%
      0     0       65,1895   224      107,0000      Cuts: 35     1789   39,08%
      0     0       65,3226   224      107,0000      Cuts: 48     1902   36,86%
      0     0       66,4198   224      107,0000      Cuts: 89     2188   36,86%
      0     0       66,7918   224      107,0000     Cuts: 102     2331   36,86%
      0     0       67,2432   224      107,0000      Cuts: 77     2451   36,86%
      0     0       67,5395   224      107,0000      Cuts: 89     2591   36,86%
      0     0       67,6862   224      107,0000      Cuts: 49     2694   36,74%
      0     0       68,4563   224      107,0000     Cuts: 104     2899   36,02%
      0     0       68,9721   224      107,0000      Cuts: 85     3056   35,54%
      0     0       69,2498   224      107,0000      Cuts: 72     3179   35,28%
      0     0       69,3899   224      107,0000      Cuts: 69     3285   35,15%
      0     0       69,5616   224      107,0000      Cuts: 68     3410   34,99%
*     0+    0                          106,0000       69,5616            34,38%
      0     0       69,6730   224      106,0000      Cuts: 66     3494   34,27%
      0     0       69,7635   224      106,0000      Cuts: 78     3584   34,19%
      0     0       69,7999   224      106,0000      Cuts: 34     3656   34,15%
      0     0       69,9357   224      106,0000      Cuts: 43     3797   34,02%
      0     0       70,0354   224      106,0000      Cuts: 85     3891   33,93%
      0     0       70,1160   224      106,0000      Cuts: 47     3982   33,85%
      0     0       70,1581   224      106,0000      Cuts: 70     4077   33,81%
      0     0       70,2048   224      106,0000      Cuts: 58     4199   33,77%
      0     0       70,2391   224      106,0000      Cuts: 39     4296   30,50%
      0     2       70,2391   286      106,0000       73,6667     4296   30,50%
Elapsed time = 0,88 sec. (592,70 ticks, tree = 0,02 MB, solutions = 7)
   2490  1438       99,9845   143      106,0000       81,0817    95484   23,51%
   5003  2066      104,9381   120      106,0000       94,9665   199722   10,41%

Performing restart 1

Repeating presolve.
Tried aggregator 1 time.
MIP Presolve eliminated 14 rows and 14 columns.
MIP Presolve added 8 rows and 0 columns.
MIP Presolve modified 4 coefficients.
Reduced MIP has 294 rows, 286 columns, and 1126 nonzeros.
Reduced MIP has 286 binaries, 0 generals, 0 SOSs, and 0 indicators.
Presolve time = 0,00 sec. (1,05 ticks)
Tried aggregator 1 time.
Reduced MIP has 294 rows, 286 columns, and 1126 nonzeros.
Reduced MIP has 286 binaries, 0 generals, 0 SOSs, and 0 indicators.
Presolve time = 0,00 sec. (0,95 ticks)
Represolve time = 0,02 sec. (15,05 ticks)
   6357     0       70,9734   286      106,0000      Cuts: 77   289019    6,89%
   6357     0       71,3650   286      106,0000      Cuts: 72   289187    6,89%
   6357     0       71,5263   286      106,0000      Cuts: 50   289280    6,89%
   6357     0       71,6709   286      106,0000      Cuts: 57   289384    6,89%
   6357     2       71,6709   286      106,0000       98,7009   289384    6,89%
   6374     8       74,3538   272      106,0000       98,7009   290449    6,89%
   7444   672       84,7545   237      106,0000       98,7009   349507    6,89%
   8424  1465       92,3927   197      106,0000       98,7009   419081    6,89%
   9872  2506       99,7993   186      106,0000       98,7009   501094    6,89%
  11343  3652       99,7370   161      106,0000       98,7009   581481    6,89%
  12997  4719        cutoff            106,0000       98,7009   656824    6,89%

Performing restart 2

Repeating presolve.
Tried aggregator 1 time.
Reduced MIP has 294 rows, 286 columns, and 1126 nonzeros.
Reduced MIP has 286 binaries, 0 generals, 0 SOSs, and 0 indicators.
Presolve time = 0,00 sec. (0,67 ticks)
Tried aggregator 1 time.
Reduced MIP has 294 rows, 286 columns, and 1126 nonzeros.
Reduced MIP has 286 binaries, 0 generals, 0 SOSs, and 0 indicators.
Presolve time = 0,00 sec. (0,95 ticks)
Represolve time = 0,02 sec. (17,84 ticks)
  14485     0       72,7331   286      106,0000      Cuts: 68   777654    6,89%
  14485     0       73,0401   286      106,0000      Cuts: 56   777796    6,89%
  14485     0       73,1570   286      106,0000      Cuts: 46   777896    6,89%
  14485     0       73,2519   286      106,0000      Cuts: 59   778002    6,89%
  14485     0       73,3017   286      106,0000      Cuts: 42   778085    6,89%
  14485     0       73,3282   286      106,0000      Cuts: 51   778151    6,89%
  15411   519       99,3836   112      106,0000       98,7009   800970    6,89%
Elapsed time = 4,79 sec. (4122,26 ticks, tree = 0,34 MB, solutions = 7)

Clique cuts applied:  21
Cover cuts applied:  245
Flow cuts applied:  1
Mixed integer rounding cuts applied:  139
Zero-half cuts applied:  61
Lift and project cuts applied:  95
Gomory fractional cuts applied:  3

Root node processing (before b&c):
  Real time             =    0,88 sec. (591,49 ticks)
Parallel b&c, 16 threads:
  Real time             =    4,89 sec. (4203,77 ticks)
  Sync time (average)   =    1,02 sec.
  Wait time (average)   =    0,01 sec.
                          ------------
Total (root+branch&cut) =    5,76 sec. (4795,26 ticks)
